StudentsNr = 15;
InstructorsNr = 10;
DaysNr = 2;
SlotsPerDay = 10;
RoomNr = 2;
ProgrammNr = 2;
DegreeNr = 1;
RolesNr = 2;
CoursesNr = 3;
InstructorsProgramm = [{1, 2}, {1, 2}, {2}, {1, 2}, {2}, {2}, {2}, {1}, {1, 2}, {1, 2}];
InstructorsRoles = [{}, {1, 2}, {1}, {1, 2}, {2}, {1, 2}, {2}, {1}, {1, 2}, {1, 2}];
InstructorsAvailability = [|1, 1, 1, 1, 1, 1, 1, 1, 1, 1, |0, 1, 1, 0, 0, 0, 1, 1, 0, 1, |0, 1, 0, 0, 1, 1, 1, 0, 0, 0, |1, 0, 1, 1, 1, 1, 1, 1, 1, 1, |0, 1, 0, 0, 0, 0, 0, 1, 0, 0, |1, 1, 1, 1, 1, 1, 0, 0, 1, 1, |1, 1, 1, 1, 1, 1, 1, 1, 1, 1, |1, 1, 1, 1, 1, 1, 0, 0, 1, 1, |1, 1, 1, 1, 1, 1, 1, 1, 1, 1, |0, 1, 1, 1, 1, 1, 1, 1, 1, 0|];
StudentsProgramm = [1, 1, 1, 2, 2, 2, 2, 1, 2, 2, 2, 2, 2, 1, 1];
StudentsDegree = [1, 1, 1, 1, 1, 1, 1, 1, 1, 1, 1, 1, 1, 1, 1];
StudentsSupervisorId = [8, 4, 10, 4, 4, 1, 10, 4, 6, 9, 7, 3, 2, 1, 10];
StudentsCourseIds = [{1, 2, 3}, {1, 2, 3}, {1, 2, 3}, {1, 2, 3}, {1, 2, 3}, {1, 2, 3}, {1, 2, 3}, {1, 2, 3}, {1, 2, 3}, {1, 2, 3}, {1, 2, 3}, {1, 2, 3}, {1, 2, 3}, {1, 2, 3}, {1, 2, 3}];
StudentsAvailability = [|0, 0, 1, 1, 1, 1, 1, 1, 1, 1, |0, 0, 0, 0, 1, 1, 1, 1, 1, 1, |1, 1, 1, 1, 1, 1, 1, 1, 1, 1, |1, 1, 1, 1, 1, 1, 1, 1, 1, 1, |1, 1, 0, 0, 1, 1, 1, 1, 1, 1, |0, 1, 1, 1, 1, 1, 1, 1, 1, 1, |0, 0, 1, 1, 1, 1, 0, 0, 1, 1, |1, 1, 1, 1, 1, 1, 1, 1, 1, 1, |1, 0, 0, 1, 1, 1, 1, 1, 0, 1, |1, 1, 1, 1, 1, 1, 0, 1, 0, 1, |0, 1, 1, 0, 1, 1, 1, 1, 1, 1, |1, 1, 1, 1, 1, 1, 1, 1, 1, 1, |1, 1, 0, 0, 0, 1, 1, 1, 1, 1, |0, 0, 1, 0, 0, 1, 1, 0, 1, 1, |1, 0, 0, 1, 1, 1, 1, 1, 1, 1|];
CoursesInstructorIds = [{2, 5, 8, 9}, {2, 3, 5, 6, 9}, {5, 9}];
